11006.0 1153059.0 
11102.0 1145932.0 
11140.0 1144605.0 
10992.0 1164177.0 
10963.0 1164937.0 
11000.0 1156418.0 
11270.0 1143188.0 
11010.0 1149570.0 
10935.0 1169509.0 
11052.0 1148804.0 
11097.0 1148715.0 
11060.0 1148798.0 
11001.0 1154525.0 
10945.0 1168482.0 
